c solution = True
p edge 364 363
e 2 1 1
e 3 1 1
e 4 1 1
e 11 4 1
e 12 4 1
e 13 4 1
e 38 13 1
e 39 13 1
e 40 13 1
e 119 40 1
e 120 40 1
e 121 40 1
e 362 121 1
e 363 121 1
e 364 121 1
e 359 120 1
e 360 120 1
e 361 120 1
e 356 119 1
e 357 119 1
e 358 119 1
e 116 39 1
e 117 39 1
e 118 39 1
e 353 118 1
e 354 118 1
e 355 118 1
e 350 117 1
e 351 117 1
e 352 117 1
e 347 116 1
e 348 116 1
e 349 116 1
e 113 38 1
e 114 38 1
e 115 38 1
e 344 115 1
e 345 115 1
e 346 115 1
e 341 114 1
e 342 114 1
e 343 114 1
e 338 113 1
e 339 113 1
e 340 113 1
e 35 12 1
e 36 12 1
e 37 12 1
e 110 37 1
e 111 37 1
e 112 37 1
e 335 112 1
e 336 112 1
e 337 112 1
e 332 111 1
e 333 111 1
e 334 111 1
e 329 110 1
e 330 110 1
e 331 110 1
e 107 36 1
e 108 36 1
e 109 36 1
e 326 109 1
e 327 109 1
e 328 109 1
e 323 108 1
e 324 108 1
e 325 108 1
e 320 107 1
e 321 107 1
e 322 107 1
e 104 35 1
e 105 35 1
e 106 35 1
e 317 106 1
e 318 106 1
e 319 106 1
e 314 105 1
e 315 105 1
e 316 105 1
e 311 104 1
e 312 104 1
e 313 104 1
e 32 11 1
e 33 11 1
e 34 11 1
e 101 34 1
e 102 34 1
e 103 34 1
e 308 103 1
e 309 103 1
e 310 103 1
e 305 102 1
e 306 102 1
e 307 102 1
e 302 101 1
e 303 101 1
e 304 101 1
e 98 33 1
e 99 33 1
e 100 33 1
e 299 100 1
e 300 100 1
e 301 100 1
e 296 99 1
e 297 99 1
e 298 99 1
e 293 98 1
e 294 98 1
e 295 98 1
e 95 32 1
e 96 32 1
e 97 32 1
e 290 97 1
e 291 97 1
e 292 97 1
e 287 96 1
e 288 96 1
e 289 96 1
e 284 95 1
e 285 95 1
e 286 95 1
e 8 3 1
e 9 3 1
e 10 3 1
e 29 10 1
e 30 10 1
e 31 10 1
e 92 31 1
e 93 31 1
e 94 31 1
e 281 94 1
e 282 94 1
e 283 94 1
e 278 93 1
e 279 93 1
e 280 93 1
e 275 92 1
e 276 92 1
e 277 92 1
e 89 30 1
e 90 30 1
e 91 30 1
e 272 91 1
e 273 91 1
e 274 91 1
e 269 90 1
e 270 90 1
e 271 90 1
e 266 89 1
e 267 89 1
e 268 89 1
e 86 29 1
e 87 29 1
e 88 29 1
e 263 88 1
e 264 88 1
e 265 88 1
e 260 87 1
e 261 87 1
e 262 87 1
e 257 86 1
e 258 86 1
e 259 86 1
e 26 9 1
e 27 9 1
e 28 9 1
e 83 28 1
e 84 28 1
e 85 28 1
e 254 85 1
e 255 85 1
e 256 85 1
e 251 84 1
e 252 84 1
e 253 84 1
e 248 83 1
e 249 83 1
e 250 83 1
e 80 27 1
e 81 27 1
e 82 27 1
e 245 82 1
e 246 82 1
e 247 82 1
e 242 81 1
e 243 81 1
e 244 81 1
e 239 80 1
e 240 80 1
e 241 80 1
e 77 26 1
e 78 26 1
e 79 26 1
e 236 79 1
e 237 79 1
e 238 79 1
e 233 78 1
e 234 78 1
e 235 78 1
e 230 77 1
e 231 77 1
e 232 77 1
e 23 8 1
e 24 8 1
e 25 8 1
e 74 25 1
e 75 25 1
e 76 25 1
e 227 76 1
e 228 76 1
e 229 76 1
e 224 75 1
e 225 75 1
e 226 75 1
e 221 74 1
e 222 74 1
e 223 74 1
e 71 24 1
e 72 24 1
e 73 24 1
e 218 73 1
e 219 73 1
e 220 73 1
e 215 72 1
e 216 72 1
e 217 72 1
e 212 71 1
e 213 71 1
e 214 71 1
e 68 23 1
e 69 23 1
e 70 23 1
e 209 70 1
e 210 70 1
e 211 70 1
e 206 69 1
e 207 69 1
e 208 69 1
e 203 68 1
e 204 68 1
e 205 68 1
e 5 2 1
e 6 2 1
e 7 2 1
e 20 7 1
e 21 7 1
e 22 7 1
e 65 22 1
e 66 22 1
e 67 22 1
e 200 67 1
e 201 67 1
e 202 67 1
e 197 66 1
e 198 66 1
e 199 66 1
e 194 65 1
e 195 65 1
e 196 65 1
e 62 21 1
e 63 21 1
e 64 21 1
e 191 64 1
e 192 64 1
e 193 64 1
e 188 63 1
e 189 63 1
e 190 63 1
e 185 62 1
e 186 62 1
e 187 62 1
e 59 20 1
e 60 20 1
e 61 20 1
e 182 61 1
e 183 61 1
e 184 61 1
e 179 60 1
e 180 60 1
e 181 60 1
e 176 59 1
e 177 59 1
e 178 59 1
e 17 6 1
e 18 6 1
e 19 6 1
e 56 19 1
e 57 19 1
e 58 19 1
e 173 58 1
e 174 58 1
e 175 58 1
e 170 57 1
e 171 57 1
e 172 57 1
e 167 56 1
e 168 56 1
e 169 56 1
e 53 18 1
e 54 18 1
e 55 18 1
e 164 55 1
e 165 55 1
e 166 55 1
e 161 54 1
e 162 54 1
e 163 54 1
e 158 53 1
e 159 53 1
e 160 53 1
e 50 17 1
e 51 17 1
e 52 17 1
e 155 52 1
e 156 52 1
e 157 52 1
e 152 51 1
e 153 51 1
e 154 51 1
e 149 50 1
e 150 50 1
e 151 50 1
e 14 5 1
e 15 5 1
e 16 5 1
e 47 16 1
e 48 16 1
e 49 16 1
e 146 49 1
e 147 49 1
e 148 49 1
e 143 48 1
e 144 48 1
e 145 48 1
e 140 47 1
e 141 47 1
e 142 47 1
e 44 15 1
e 45 15 1
e 46 15 1
e 137 46 1
e 138 46 1
e 139 46 1
e 134 45 1
e 135 45 1
e 136 45 1
e 131 44 1
e 132 44 1
e 133 44 1
e 41 14 1
e 42 14 1
e 43 14 1
e 128 43 1
e 129 43 1
e 130 43 1
e 125 42 1
e 126 42 1
e 127 42 1
e 122 41 1
e 123 41 1
e 124 41 1
